// dados do problema da mochila
// instancia pequena para testar o modelo

nItens = 8;

nomeItem = [
  "Item 1",
  "Item 2",
  "Item 3",
  "Item 4",
  "Item 5",
  "Item 6",
  "Item 7",
  "Item 8"
];

// valor de cada item
valor = [20, 5, 10, 40, 15, 25, 30, 34];

// peso de cada item
peso = [2, 3, 1, 8, 7, 4, 5, 6];

// capacidade maxima da mochila
capacidade = 15;